p cnf 18 67
19 20 21 22 23 24 25 26 0 
27 28 29 30 31 32 33 34 0 
-19 1 0 
-20 2 0 
-21 3 0 
-22 4 0 
-23 5 0 
-24 6 0 
-25 7 0 
-26 8 0 
-27 2 0 
-28 3 0 
-29 4 0 
-30 5 0 
-31 6 0 
-32 7 0 
-33 8 0 
-34 9 0 
19 -27 0 
19 20 -28 0 
19 20 21 -29 0 
19 20 21 22 -30 0 
19 20 21 22 23 -31 0 
19 20 21 22 23 24 -32 0 
19 20 21 22 23 24 25 -33 0 
19 20 21 22 23 24 25 26 0 
27 28 29 30 31 32 33 34 0 
-19 1 0 
-20 2 0 
-21 3 0 
-22 4 0 
-23 5 0 
-24 6 0 
-25 7 0 
-26 8 0 
-27 2 0 
-28 3 0 
-29 4 0 
-30 5 0 
-31 6 0 
-32 7 0 
-33 8 0 
-34 9 0 
19 -27 0 
19 20 -28 0 
19 20 21 -29 0 
19 20 21 22 -30 0 
19 20 21 22 23 -31 0 
19 20 21 22 23 24 -32 0 
19 20 21 22 23 24 25 -33 0 
10 11 12 13 14 15 16 17 18  0
10 4 5 6 7 8 9 0
11 1 2 3 6 7 8 9 0
12 2 4 5 7 8 9 0
13 1 2 3 4 5 6 0
14 1 2 3 6 7 9 0
15 2 6 7 9 0
16 1 3 6 7 9 0
17 4 6 7 8 9 0
18 1 2 3 0
-10 -4 0
-10 -5 0
-10 -6 0
-10 -7 0
-10 -8 0
-10 -9 0
-11 -1 0
-11 -2 0
-11 -3 0
-11 -6 0
-11 -7 0
-11 -8 0
-11 -9 0
-12 -2 0
-12 -4 0
-12 -5 0
-12 -7 0
-12 -8 0
-12 -9 0
-13 -1 0
-13 -2 0
-13 -3 0
-13 -4 0
-13 -5 0
-13 -6 0
-14 -1 0
-14 -2 0
-14 -3 0
-14 -6 0
-14 -7 0
-14 -9 0
-15 -2 0
-15 -6 0
-15 -7 0
-15 -9 0
-16 -1 0
-16 -3 0
-16 -6 0
-16 -7 0
-16 -9 0
-17 -4 0
-17 -6 0
-17 -7 0
-17 -8 0
-17 -9 0
-18 -1 0
-18 -2 0
-18 -3 0
11 13 14 16 18 1 0
11 12 13 14 15 18 2 0
11 13 14 16 18 3 0
10 12 13 17 4 0
10 12 13 5 0
10 11 13 14 15 16 17 6 0
10 11 12 14 15 16 17 7 0
10 11 12 17 8 0
10 11 12 14 15 16 17 9 0
